p edge 16 120
e 1 2 -905.0
e 1 3 572.0
e 1 4 -194.0
e 1 5 620.0
e 1 6 824.0
e 1 7 -733.0
e 1 8 299.0
e 1 9 -63.0
e 1 10 -134.0
e 1 11 417.0
e 1 12 -654.0
e 1 13 258.0
e 1 14 887.0
e 1 15 509.0
e 1 16 142.0
e 2 3 792.0
e 2 4 309.0
e 2 5 -772.0
e 2 6 34.0
e 2 7 -98.0
e 2 8 -286.0
e 2 9 -11.0
e 2 10 -941.0
e 2 11 -652.0
e 2 12 988.0
e 2 13 -195.0
e 2 14 -800.0
e 2 15 351.0
e 2 16 -190.0
e 3 4 -93.0
e 3 5 834.0
e 3 6 -973.0
e 3 7 -125.0
e 3 8 423.0
e 3 9 -522.0
e 3 10 -653.0
e 3 11 -965.0
e 3 12 646.0
e 3 13 -859.0
e 3 14 -198.0
e 3 15 -77.0
e 3 16 -93.0
e 4 5 50.0
e 4 6 -340.0
e 4 7 618.0
e 4 8 759.0
e 4 9 -398.0
e 4 10 -112.0
e 4 11 257.0
e 4 12 -28.0
e 4 13 857.0
e 4 14 -677.0
e 4 15 349.0
e 4 16 -937.0
e 5 6 334.0
e 5 7 336.0
e 5 8 995.0
e 5 9 905.0
e 5 10 782.0
e 5 11 -159.0
e 5 12 900.0
e 5 13 337.0
e 5 14 -766.0
e 5 15 -309.0
e 5 16 828.0
e 6 7 -68.0
e 6 8 -920.0
e 6 9 657.0
e 6 10 -345.0
e 6 11 264.0
e 6 12 408.0
e 6 13 -226.0
e 6 14 73.0
e 6 15 -849.0
e 6 16 -699.0
e 7 8 -586.0
e 7 9 -675.0
e 7 10 847.0
e 7 11 -928.0
e 7 12 -380.0
e 7 13 618.0
e 7 14 118.0
e 7 15 -319.0
e 7 16 -301.0
e 8 9 438.0
e 8 10 731.0
e 8 11 -213.0
e 8 12 -311.0
e 8 13 -890.0
e 8 14 -571.0
e 8 15 511.0
e 8 16 -15.0
e 9 10 -412.0
e 9 11 397.0
e 9 12 449.0
e 9 13 338.0
e 9 14 -537.0
e 9 15 -68.0
e 9 16 660.0
e 10 11 159.0
e 10 12 -148.0
e 10 13 463.0
e 10 14 937.0
e 10 15 -519.0
e 10 16 -790.0
e 11 12 -804.0
e 11 13 -789.0
e 11 14 -164.0
e 11 15 930.0
e 11 16 -297.0
e 12 13 -25.0
e 12 14 527.0
e 12 15 -421.0
e 12 16 683.0
e 13 14 969.0
e 13 15 523.0
e 13 16 943.0
e 14 15 969.0
e 14 16 838.0
e 15 16 442.0
